enter example

minimize
 x0 + x1 + x2 + x3 + x4 + x5 + x6 + x7 + x8 + x9 + x10 + x11 + x12 + x13 + x14 + x15 + x16 + x17 + x18 + x19 + x20 + x21 + x22 + x23 + x24 + x25 + x26 + x27 + x28 + x29 + x30 + x31 + x32 + x33 + x34 + x35 + x36 + x37 + x38 + x39 + x40 + x41 + x42 + x43 + x44 + x45 + x46 + x47 + x48 + x49 + x50 + x51 + x52 + x53 + x54 + x55 + x56 + x57 + x58 + x59 + x60 + x61 + x62 + x63 + x64 + x65 + x66 + x67 + x68 + x69 + x70 + x71 + x72 + x73 + x74 + x75 + x76 + x77 + x78 + x79 + x80 + x81 + x82 + x83 + x84 + x85 + x86 + x87 + x88 + x89 + x90 + x91 + x92 + x93 + x94 + x95 + x96 + x97 + x98 + x99 + x100 + x101 + x102 + x103 + x104 + x105 + x106 + x107 + x108 + x109 + x110 + x111 + x112 + x113 + x114 + x115 + x116 + x117 + x118 + x119 + x120 + x121 + x122 + x123 + x124 + x125 + x126 + x127 + x128 + x129 + x130 + x131 + x132 + x133 + x134 + x135 + x136 + x137 + x138 + x139 + x140 + x141 + x142 + x143 + x144 +
 z0 + z1 + z2 + z3 + z4 + z5 + z6 + z7 + z8 + z9 + z10 + z11 + z12 + z13 + z14 + z15 + z16 + z17 + z18 + z19 + z20 + z21 + z22 + z23 + z24 + z25 + z26 + z27 + z28 + z29 + z30 + z31 + z32 + z33 + z34 + z35 + z36 + z37 + z38 + z39 + z40 + z41 + z42 + z43 + z44 + z45 + z46 + z47 + z48 + z49 + z50 + z51 + z52 + z53 + z54 + z55 + z56 + z57 + z58 + z59 + z60 + z61 + z62 + z63 + z64 + z65 + z66 + z67 + z68 + z69 + z70 + z71 + z72 + z73 + z74 + z75 + z76 + z77 + z78 + z79 + z80 + z81 + z82 + z83 + z84 + z85 + z86 + z87 + z88 + z89 + z90 + z91 + z92 + z93 + z94 + z95 + z96 + z97 + z98 + z99 + z100 + z101 + z102 + z103 + z104 + z105 + z106 + z107 + z108 + z109 + z110 + z111 + z112 + z113 + z114 + z115 + z116 + z117 + z118 + z119 + z120 + z121 + z122 + z123 + z124 + z125 + z126 + z127 + z128 + z129 + z130 + z131 + z132 + z133 + z134 + z135 + z136 + z137 + z138 + z139 + z140 + z141 + z142 + z143 + z144 +
 y0 + y1 + y2 + y3 + y4 + y5 + y6 + y7 + y8 + y9 + y10 + y11 + y12 + y13 + y14 + y15 + y16 + y17 + y18 + y19 + y20 + y21 + y22 + y23 + y24 + y25 + y26 + y27 + y28 + y29 + y30 + y31 + y32 + y33 + y34 + y35 + y36 + y37 + y38 + y39 + y40 + y41 + y42 + y43 + y44 + y45 + y46 + y47 + y48 + y49 + y50 + y51 + y52 + y53 + y54 + y55 + y56 + y57 + y58 + y59 + y60 + y61 + y62 + y63 + y64 + y65 + y66 + y67 + y68 + y69 + y70 + y71 + y72 + y73 + y74 + y75 + y76 + y77 + y78 + y79 + y80 + y81 + y82 + y83 + y84 + y85 + y86 + y87 + y88 + y89 + y90 + y91 + y92 + y93 + y94 + y95 + y96 + y97 + y98 + y99 + y100 + y101 + y102 + y103 + y104 + y105 + y106 + y107 + y108 + y109 + y110 + y111 + y112 + y113 + y114 + y115 + y116 + y117 + y118 + y119 + y120 + y121 + y122 + y123 + y124 + y125 + y126 + y127 + y128 + y129 + y130 + y131 + y132 + y133 + y134 + y135 + y136 + y137 + y138 + y139 + y140 + y141 + y142 + y143 + y144

subject to 
x0 + y0 + x9 + y9 + x81 + y81 -2 w0 = 0
x1 + y1 + x10 + y10 + x81 + y81 + x82 + y82 -2 w1 = 0
x2 + y2 + x11 + y11 + x82 + y82 + x83 + y83 -2 w2 = 0
x3 + y3 + x12 + y12 + x83 + y83 + x84 + y84 -2 w3 = 1
x4 + y4 + x13 + y13 + x84 + y84 + x85 + y85 -2 w4 = 1
x5 + y5 + x14 + y14 + x85 + y85 + x86 + y86 -2 w5 = 1
x6 + y6 + x15 + y15 + x86 + y86 + x87 + y87 -2 w6 = 0
x7 + y7 + x16 + y16 + x87 + y87 + x88 + y88 -2 w7 = 0
x8 + y8 + x17 + y17 + x88 + y88 -2 w8 = 0
x9 + y9 + x18 + y18 + x89 + y89 -2 w9 = 1
x10 + y10 + x19 + y19 + x89 + y89 + x90 + y90 -2 w10 = 0
x11 + y11 + x20 + y20 + x90 + y90 + x91 + y91 -2 w11 = 1
x12 + y12 + x21 + y21 + x91 + y91 + x92 + y92 -2 w12 = 0
x13 + y13 + x22 + y22 + x92 + y92 + x93 + y93 -2 w13 = 1
x14 + y14 + x23 + y23 + x93 + y93 + x94 + y94 -2 w14 = 1
x15 + y15 + x24 + y24 + x94 + y94 + x95 + y95 -2 w15 = 0
x16 + y16 + x25 + y25 + x95 + y95 + x96 + y96 -2 w16 = 0
x17 + y17 + x26 + y26 + x96 + y96 -2 w17 = 1
x18 + y18 + x27 + y27 + x97 + y97 -2 w18 = 0
x19 + y19 + x28 + y28 + x97 + y97 + x98 + y98 -2 w19 = 0
x20 + y20 + x29 + y29 + x98 + y98 + x99 + y99 -2 w20 = 0
x21 + y21 + x30 + y30 + x99 + y99 + x100 + y100 -2 w21 = 1
x22 + y22 + x31 + y31 + x100 + y100 + x101 + y101 -2 w22 = 0
x23 + y23 + x32 + y32 + x101 + y101 + x102 + y102 -2 w23 = 0
x24 + y24 + x33 + y33 + x102 + y102 + x103 + y103 -2 w24 = 0
x25 + y25 + x34 + y34 + x103 + y103 + x104 + y104 -2 w25 = 1
x26 + y26 + x35 + y35 + x104 + y104 -2 w26 = 0
x27 + y27 + x36 + y36 + x105 + y105 -2 w27 = 0
x28 + y28 + x37 + y37 + x105 + y105 + x106 + y106 -2 w28 = 0
x29 + y29 + x38 + y38 + x106 + y106 + x107 + y107 -2 w29 = 0
x30 + y30 + x39 + y39 + x107 + y107 + x108 + y108 -2 w30 = 1
x31 + y31 + x40 + y40 + x108 + y108 + x109 + y109 -2 w31 = 1
x32 + y32 + x41 + y41 + x109 + y109 + x110 + y110 -2 w32 = 1
x33 + y33 + x42 + y42 + x110 + y110 + x111 + y111 -2 w33 = 1
x34 + y34 + x43 + y43 + x111 + y111 + x112 + y112 -2 w34 = 0
x35 + y35 + x44 + y44 + x112 + y112 -2 w35 = 0
x36 + y36 + x45 + y45 + x113 + y113 -2 w36 = 0
x37 + y37 + x46 + y46 + x113 + y113 + x114 + y114 -2 w37 = 0
x38 + y38 + x47 + y47 + x114 + y114 + x115 + y115 -2 w38 = 0
x39 + y39 + x48 + y48 + x115 + y115 + x116 + y116 -2 w39 = 0
x40 + y40 + x49 + y49 + x116 + y116 + x117 + y117 -2 w40 = 1
x41 + y41 + x50 + y50 + x117 + y117 + x118 + y118 -2 w41 = 1
x42 + y42 + x51 + y51 + x118 + y118 + x119 + y119 -2 w42 = 1
x43 + y43 + x52 + y52 + x119 + y119 + x120 + y120 -2 w43 = 0
x44 + y44 + x53 + y53 + x120 + y120 -2 w44 = 0
x45 + y45 + x54 + y54 + x121 + y121 -2 w45 = 0
x46 + y46 + x55 + y55 + x121 + y121 + x122 + y122 -2 w46 = 0
x47 + y47 + x56 + y56 + x122 + y122 + x123 + y123 -2 w47 = 0
x48 + y48 + x57 + y57 + x123 + y123 + x124 + y124 -2 w48 = 0
x49 + y49 + x58 + y58 + x124 + y124 + x125 + y125 -2 w49 = 0
x50 + y50 + x59 + y59 + x125 + y125 + x126 + y126 -2 w50 = 1
x51 + y51 + x60 + y60 + x126 + y126 + x127 + y127 -2 w51 = 0
x52 + y52 + x61 + y61 + x127 + y127 + x128 + y128 -2 w52 = 0
x53 + y53 + x62 + y62 + x128 + y128 -2 w53 = 0
x54 + y54 + x63 + y63 + x129 + y129 -2 w54 = 0
x55 + y55 + x64 + y64 + x129 + y129 + x130 + y130 -2 w55 = 1
x56 + y56 + x65 + y65 + x130 + y130 + x131 + y131 -2 w56 = 1
x57 + y57 + x66 + y66 + x131 + y131 + x132 + y132 -2 w57 = 1
x58 + y58 + x67 + y67 + x132 + y132 + x133 + y133 -2 w58 = 0
x59 + y59 + x68 + y68 + x133 + y133 + x134 + y134 -2 w59 = 1
x60 + y60 + x69 + y69 + x134 + y134 + x135 + y135 -2 w60 = 0
x61 + y61 + x70 + y70 + x135 + y135 + x136 + y136 -2 w61 = 1
x62 + y62 + x71 + y71 + x136 + y136 -2 w62 = 0
x63 + y63 + x72 + y72 + x137 + y137 -2 w63 = 0
x64 + y64 + x73 + y73 + x137 + y137 + x138 + y138 -2 w64 = 1
x65 + y65 + x74 + y74 + x138 + y138 + x139 + y139 -2 w65 = 0
x66 + y66 + x75 + y75 + x139 + y139 + x140 + y140 -2 w66 = 1
x67 + y67 + x76 + y76 + x140 + y140 + x141 + y141 -2 w67 = 1
x68 + y68 + x77 + y77 + x141 + y141 + x142 + y142 -2 w68 = 0
x69 + y69 + x78 + y78 + x142 + y142 + x143 + y143 -2 w69 = 1
x70 + y70 + x79 + y79 + x143 + y143 + x144 + y144 -2 w70 = 0
x71 + y71 + x80 + y80 + x144 + y144 -2 w71 = 0
z0 + y0 + z1 + y1 + z81 + y81 -2 w72 = 0
z1 + y1 + z2 + y2 + z82 + y82 -2 w73 = 0
z2 + y2 + z3 + y3 + z83 + y83 -2 w74 = 0
z3 + y3 + z4 + y4 + z84 + y84 -2 w75 = 0
z4 + y4 + z5 + y5 + z85 + y85 -2 w76 = 1
z5 + y5 + z6 + y6 + z86 + y86 -2 w77 = 0
z6 + y6 + z7 + y7 + z87 + y87 -2 w78 = 0
z7 + y7 + z8 + y8 + z88 + y88 -2 w79 = 0
z9 + y9 + z10 + y10 + z81 + y81 + z89 + y89 -2 w80 = 0
z10 + y10 + z11 + y11 + z82 + y82 + z90 + y90 -2 w81 = 1
z11 + y11 + z12 + y12 + z83 + y83 + z91 + y91 -2 w82 = 0
z12 + y12 + z13 + y13 + z84 + y84 + z92 + y92 -2 w83 = 0
z13 + y13 + z14 + y14 + z85 + y85 + z93 + y93 -2 w84 = 1
z14 + y14 + z15 + y15 + z86 + y86 + z94 + y94 -2 w85 = 0
z15 + y15 + z16 + y16 + z87 + y87 + z95 + y95 -2 w86 = 0
z16 + y16 + z17 + y17 + z88 + y88 + z96 + y96 -2 w87 = 0
z18 + y18 + z19 + y19 + z89 + y89 + z97 + y97 -2 w88 = 0
z19 + y19 + z20 + y20 + z90 + y90 + z98 + y98 -2 w89 = 0
z20 + y20 + z21 + y21 + z91 + y91 + z99 + y99 -2 w90 = 1
z21 + y21 + z22 + y22 + z92 + y92 + z100 + y100 -2 w91 = 0
z22 + y22 + z23 + y23 + z93 + y93 + z101 + y101 -2 w92 = 1
z23 + y23 + z24 + y24 + z94 + y94 + z102 + y102 -2 w93 = 0
z24 + y24 + z25 + y25 + z95 + y95 + z103 + y103 -2 w94 = 1
z25 + y25 + z26 + y26 + z96 + y96 + z104 + y104 -2 w95 = 0
z27 + y27 + z28 + y28 + z97 + y97 + z105 + y105 -2 w96 = 0
z28 + y28 + z29 + y29 + z98 + y98 + z106 + y106 -2 w97 = 0
z29 + y29 + z30 + y30 + z99 + y99 + z107 + y107 -2 w98 = 1
z30 + y30 + z31 + y31 + z100 + y100 + z108 + y108 -2 w99 = 0
z31 + y31 + z32 + y32 + z101 + y101 + z109 + y109 -2 w100 = 0
z32 + y32 + z33 + y33 + z102 + y102 + z110 + y110 -2 w101 = 0
z33 + y33 + z34 + y34 + z103 + y103 + z111 + y111 -2 w102 = 0
z34 + y34 + z35 + y35 + z104 + y104 + z112 + y112 -2 w103 = 0
z36 + y36 + z37 + y37 + z105 + y105 + z113 + y113 -2 w104 = 0
z37 + y37 + z38 + y38 + z106 + y106 + z114 + y114 -2 w105 = 0
z38 + y38 + z39 + y39 + z107 + y107 + z115 + y115 -2 w106 = 0
z39 + y39 + z40 + y40 + z108 + y108 + z116 + y116 -2 w107 = 1
z40 + y40 + z41 + y41 + z109 + y109 + z117 + y117 -2 w108 = 0
z41 + y41 + z42 + y42 + z110 + y110 + z118 + y118 -2 w109 = 1
z42 + y42 + z43 + y43 + z111 + y111 + z119 + y119 -2 w110 = 1
z43 + y43 + z44 + y44 + z112 + y112 + z120 + y120 -2 w111 = 1
z45 + y45 + z46 + y46 + z113 + y113 + z121 + y121 -2 w112 = 1
z46 + y46 + z47 + y47 + z114 + y114 + z122 + y122 -2 w113 = 1
z47 + y47 + z48 + y48 + z115 + y115 + z123 + y123 -2 w114 = 1
z48 + y48 + z49 + y49 + z116 + y116 + z124 + y124 -2 w115 = 0
z49 + y49 + z50 + y50 + z117 + y117 + z125 + y125 -2 w116 = 1
z50 + y50 + z51 + y51 + z118 + y118 + z126 + y126 -2 w117 = 0
z51 + y51 + z52 + y52 + z119 + y119 + z127 + y127 -2 w118 = 0
z52 + y52 + z53 + y53 + z120 + y120 + z128 + y128 -2 w119 = 0
z54 + y54 + z55 + y55 + z121 + y121 + z129 + y129 -2 w120 = 0
z55 + y55 + z56 + y56 + z122 + y122 + z130 + y130 -2 w121 = 0
z56 + y56 + z57 + y57 + z123 + y123 + z131 + y131 -2 w122 = 0
z57 + y57 + z58 + y58 + z124 + y124 + z132 + y132 -2 w123 = 0
z58 + y58 + z59 + y59 + z125 + y125 + z133 + y133 -2 w124 = 1
z59 + y59 + z60 + y60 + z126 + y126 + z134 + y134 -2 w125 = 1
z60 + y60 + z61 + y61 + z127 + y127 + z135 + y135 -2 w126 = 1
z61 + y61 + z62 + y62 + z128 + y128 + z136 + y136 -2 w127 = 0
z63 + y63 + z64 + y64 + z129 + y129 + z137 + y137 -2 w128 = 0
z64 + y64 + z65 + y65 + z130 + y130 + z138 + y138 -2 w129 = 0
z65 + y65 + z66 + y66 + z131 + y131 + z139 + y139 -2 w130 = 1
z66 + y66 + z67 + y67 + z132 + y132 + z140 + y140 -2 w131 = 0
z67 + y67 + z68 + y68 + z133 + y133 + z141 + y141 -2 w132 = 0
z68 + y68 + z69 + y69 + z134 + y134 + z142 + y142 -2 w133 = 1
z69 + y69 + z70 + y70 + z135 + y135 + z143 + y143 -2 w134 = 0
z70 + y70 + z71 + y71 + z136 + y136 + z144 + y144 -2 w135 = 1
z72 + y72 + z73 + y73 + z137 + y137 -2 w136 = 1
z73 + y73 + z74 + y74 + z138 + y138 -2 w137 = 0
z74 + y74 + z75 + y75 + z139 + y139 -2 w138 = 0
z75 + y75 + z76 + y76 + z140 + y140 -2 w139 = 1
z76 + y76 + z77 + y77 + z141 + y141 -2 w140 = 0
z77 + y77 + z78 + y78 + z142 + y142 -2 w141 = 0
z78 + y78 + z79 + y79 + z143 + y143 -2 w142 = 0
z79 + y79 + z80 + y80 + z144 + y144 -2 w143 = 0


bound

general
w0
w1
w2
w3
w4
w5
w6
w7
w8
w9
w10
w11
w12
w13
w14
w15
w16
w17
w18
w19
w20
w21
w22
w23
w24
w25
w26
w27
w28
w29
w30
w31
w32
w33
w34
w35
w36
w37
w38
w39
w40
w41
w42
w43
w44
w45
w46
w47
w48
w49
w50
w51
w52
w53
w54
w55
w56
w57
w58
w59
w60
w61
w62
w63
w64
w65
w66
w67
w68
w69
w70
w71
w72
w73
w74
w75
w76
w77
w78
w79
w80
w81
w82
w83
w84
w85
w86
w87
w88
w89
w90
w91
w92
w93
w94
w95
w96
w97
w98
w99
w100
w101
w102
w103
w104
w105
w106
w107
w108
w109
w110
w111
w112
w113
w114
w115
w116
w117
w118
w119
w120
w121
w122
w123
w124
w125
w126
w127
w128
w129
w130
w131
w132
w133
w134
w135
w136
w137
w138
w139
w140
w141
w142
w143


binary

x0
x1
x2
x3
x4
x5
x6
x7
x8
x9
x10
x11
x12
x13
x14
x15
x16
x17
x18
x19
x20
x21
x22
x23
x24
x25
x26
x27
x28
x29
x30
x31
x32
x33
x34
x35
x36
x37
x38
x39
x40
x41
x42
x43
x44
x45
x46
x47
x48
x49
x50
x51
x52
x53
x54
x55
x56
x57
x58
x59
x60
x61
x62
x63
x64
x65
x66
x67
x68
x69
x70
x71
x72
x73
x74
x75
x76
x77
x78
x79
x80
x81
x82
x83
x84
x85
x86
x87
x88
x89
x90
x91
x92
x93
x94
x95
x96
x97
x98
x99
x100
x101
x102
x103
x104
x105
x106
x107
x108
x109
x110
x111
x112
x113
x114
x115
x116
x117
x118
x119
x120
x121
x122
x123
x124
x125
x126
x127
x128
x129
x130
x131
x132
x133
x134
x135
x136
x137
x138
x139
x140
x141
x142
x143
x144
y0
y1
y2
y3
y4
y5
y6
y7
y8
y9
y10
y11
y12
y13
y14
y15
y16
y17
y18
y19
y20
y21
y22
y23
y24
y25
y26
y27
y28
y29
y30
y31
y32
y33
y34
y35
y36
y37
y38
y39
y40
y41
y42
y43
y44
y45
y46
y47
y48
y49
y50
y51
y52
y53
y54
y55
y56
y57
y58
y59
y60
y61
y62
y63
y64
y65
y66
y67
y68
y69
y70
y71
y72
y73
y74
y75
y76
y77
y78
y79
y80
y81
y82
y83
y84
y85
y86
y87
y88
y89
y90
y91
y92
y93
y94
y95
y96
y97
y98
y99
y100
y101
y102
y103
y104
y105
y106
y107
y108
y109
y110
y111
y112
y113
y114
y115
y116
y117
y118
y119
y120
y121
y122
y123
y124
y125
y126
y127
y128
y129
y130
y131
y132
y133
y134
y135
y136
y137
y138
y139
y140
y141
y142
y143
y144
z0
z1
z2
z3
z4
z5
z6
z7
z8
z9
z10
z11
z12
z13
z14
z15
z16
z17
z18
z19
z20
z21
z22
z23
z24
z25
z26
z27
z28
z29
z30
z31
z32
z33
z34
z35
z36
z37
z38
z39
z40
z41
z42
z43
z44
z45
z46
z47
z48
z49
z50
z51
z52
z53
z54
z55
z56
z57
z58
z59
z60
z61
z62
z63
z64
z65
z66
z67
z68
z69
z70
z71
z72
z73
z74
z75
z76
z77
z78
z79
z80
z81
z82
z83
z84
z85
z86
z87
z88
z89
z90
z91
z92
z93
z94
z95
z96
z97
z98
z99
z100
z101
z102
z103
z104
z105
z106
z107
z108
z109
z110
z111
z112
z113
z114
z115
z116
z117
z118
z119
z120
z121
z122
z123
z124
z125
z126
z127
z128
z129
z130
z131
z132
z133
z134
z135
z136
z137
z138
z139
z140
z141
z142
z143
z144


end